47
1000
199	3
198	1
197	2
196	3
195	1
194	6
193	2
192	2
191	3
190	2
189	2
188	1
187	1
186	4
185	3
184	2
183	3
182	1
181	2
180	3
179	4
178	3
177	3
175	2
174	3
173	2
172	2
171	4
170	1
169	5
168	3
167	3
166	1
165	3
164	3
163	2
162	2
161	2
160	1
158	3
157	2
156	1
155	4
154	4
153	4
152	1
151	5
